p cnf 88 9
-71 -34 -4 -59 -41 -79 -70 -27 -32 -67 -10 -14 -15 -84 -49 -25 -29 -38 -81 3 4 8 10 11 13 14 15 21 25 27 29 32 34 38 41 47 49 54 59 60 61 67 70 71 79 81 84 0
-42 -16 -32 -7 -70 -12 -33 -47 -80 -27 -40 -15 -9 -21 -67 -28 -63 -85 2 6 7 9 12 13 14 15 16 17 21 22 23 24 25 26 27 28 30 31 32 33 40 41 42 43 44 47 48 49 50 51 52 53 56 58 60 61 63 64 67 70 71 74 75 80 83 85 8781438748268616282 8.600642052797806 0
